TCS_Benchmarks/redos_fix/regexlib1_output_distinct_3305_3304_3_0.smt2
(set-logic QF_S)
(declare-const x String)
(assert (str.in.re x (re.inter  (re.++ (re.+  (re.union  (re.++  (re.union  (str.to.re "\u{66}")  (str.to.re "\u{46}")) (re.++  (re.union  (str.to.re "\u{65}")  (str.to.re "\u{45}")) (re.++  (re.union  (str.to.re "\u{62}")  (str.to.re "\u{42}")) (re.opt  (re.++  (re.union  (str.to.re "\u{72}")  (str.to.re "\u{52}")) (re.++  (re.union  (str.to.re "\u{75}")  (str.to.re "\u{55}")) (re.++  (re.union  (str.to.re "\u{61}")  (str.to.re "\u{41}")) (re.++  (re.union  (str.to.re "\u{72}")  (str.to.re "\u{52}"))  (re.union  (str.to.re "\u{79}")  (str.to.re "\u{59}")))))) )))) (re.union  (re.++  (re.union  (str.to.re "\u{6d}")  (str.to.re "\u{4d}")) (re.++  (re.union  (str.to.re "\u{61}")  (str.to.re "\u{41}")) (re.++  (re.union  (str.to.re "\u{72}")  (str.to.re "\u{52}")) (re.opt  (re.++  (re.union  (str.to.re "\u{63}")  (str.to.re "\u{43}"))  (re.union  (str.to.re "\u{68}")  (str.to.re "\u{48}"))) )))) (re.union  (re.++  (re.union  (str.to.re "\u{61}")  (str.to.re "\u{41}")) (re.++  (re.union  (str.to.re "\u{70}")  (str.to.re "\u{50}")) (re.++  (re.union  (str.to.re "\u{72}")  (str.to.re "\u{52}")) (re.opt  (re.++  (re.union  (str.to.re "\u{69}")  (str.to.re "\u{49}"))  (re.union  (str.to.re "\u{6c}")  (str.to.re "\u{4c}"))) )))) (re.union  (re.++  (re.union  (str.to.re "\u{6d}")  (str.to.re "\u{4d}")) (re.++  (re.union  (str.to.re "\u{61}")  (str.to.re "\u{41}"))  (re.union  (str.to.re "\u{79}")  (str.to.re "\u{59}")))) (re.union  (re.++  (re.union  (str.to.re "\u{6a}")  (str.to.re "\u{4a}")) (re.++  (re.union  (str.to.re "\u{75}")  (str.to.re "\u{55}")) (re.++  (re.union  (str.to.re "\u{6c}")  (str.to.re "\u{4c}")) (re.opt  (re.union  (str.to.re "\u{79}")  (str.to.re "\u{59}")) )))) (re.union  (re.++  (re.union  (str.to.re "\u{61}")  (str.to.re "\u{41}")) (re.++  (re.union  (str.to.re "\u{75}")  (str.to.re "\u{55}")) (re.++  (re.union  (str.to.re "\u{67}")  (str.to.re "\u{47}")) (re.opt  (re.++  (re.union  (str.to.re "\u{75}")  (str.to.re "\u{55}")) (re.++  (re.union  (str.to.re "\u{73}")  (str.to.re "\u{53}"))  (re.union  (str.to.re "\u{74}")  (str.to.re "\u{54}")))) )))) (re.union  (re.++  (re.union  (str.to.re "\u{73}")  (str.to.re "\u{53}")) (re.++  (re.union  (str.to.re "\u{65}")  (str.to.re "\u{45}")) (re.++  (re.union  (str.to.re "\u{70}")  (str.to.re "\u{50}")) (re.opt  (re.++  (re.union  (str.to.re "\u{74}")  (str.to.re "\u{54}")) (re.++  (re.union  (str.to.re "\u{65}")  (str.to.re "\u{45}")) (re.++  (re.union  (str.to.re "\u{6d}")  (str.to.re "\u{4d}")) (re.++  (re.union  (str.to.re "\u{62}")  (str.to.re "\u{42}")) (re.++  (re.union  (str.to.re "\u{65}")  (str.to.re "\u{45}"))  (re.union  (str.to.re "\u{72}")  (str.to.re "\u{52}"))))))) )))) (re.union  (re.++  (re.union  (str.to.re "\u{6f}")  (str.to.re "\u{4f}")) (re.++  (re.union  (str.to.re "\u{63}")  (str.to.re "\u{43}")) (re.++  (re.union  (str.to.re "\u{74}")  (str.to.re "\u{54}")) (re.opt  (re.++  (re.union  (str.to.re "\u{6f}")  (str.to.re "\u{4f}")) (re.++  (re.union  (str.to.re "\u{62}")  (str.to.re "\u{42}")) (re.++  (re.union  (str.to.re "\u{65}")  (str.to.re "\u{45}"))  (re.union  (str.to.re "\u{72}")  (str.to.re "\u{52}"))))) )))) (re.union  (re.++  (re.union  (str.to.re "\u{6e}")  (str.to.re "\u{4e}")) (re.++  (re.union  (str.to.re "\u{6f}")  (str.to.re "\u{4f}")) (re.++  (re.union  (str.to.re "\u{76}")  (str.to.re "\u{56}")) (re.opt  (re.++  (re.union  (str.to.re "\u{65}")  (str.to.re "\u{45}")) (re.++  (re.union  (str.to.re "\u{6d}")  (str.to.re "\u{4d}")) (re.++  (re.union  (str.to.re "\u{62}")  (str.to.re "\u{42}")) (re.++  (re.union  (str.to.re "\u{65}")  (str.to.re "\u{45}"))  (re.union  (str.to.re "\u{72}")  (str.to.re "\u{52}")))))) )))) (re.union  (re.++  (re.union  (str.to.re "\u{64}")  (str.to.re "\u{44}")) (re.++  (re.union  (str.to.re "\u{65}")  (str.to.re "\u{45}")) (re.++  (re.union  (str.to.re "\u{63}")  (str.to.re "\u{43}")) (re.opt  (re.++  (re.union  (str.to.re "\u{65}")  (str.to.re "\u{45}")) (re.++  (re.union  (str.to.re "\u{6d}")  (str.to.re "\u{4d}")) (re.++  (re.union  (str.to.re "\u{62}")  (str.to.re "\u{42}")) (re.++  (re.union  (str.to.re "\u{65}")  (str.to.re "\u{45}"))  (re.union  (str.to.re "\u{72}")  (str.to.re "\u{52}")))))) ))))  (re.++  (re.union  (str.to.re "\u{6a}")  (str.to.re "\u{4a}")) (re.++  (re.union  (str.to.re "\u{61}")  (str.to.re "\u{41}")) (re.++  (re.union  (str.to.re "\u{6e}")  (str.to.re "\u{4e}")) (re.opt  (re.++  (re.union  (str.to.re "\u{75}")  (str.to.re "\u{55}")) (re.++  (re.union  (str.to.re "\u{61}")  (str.to.re "\u{41}")) (re.++  (re.union  (str.to.re "\u{72}")  (str.to.re "\u{52}"))  (re.union  (str.to.re "\u{79}")  (str.to.re "\u{59}"))))) )))))))))))))) ) (re.+  (re.union  (re.++  (re.union  (str.to.re "\u{66}")  (str.to.re "\u{46}")) (re.++  (re.union  (str.to.re "\u{65}")  (str.to.re "\u{45}")) (re.++  (re.union  (str.to.re "\u{62}")  (str.to.re "\u{42}")) (re.opt  (re.++  (re.union  (str.to.re "\u{72}")  (str.to.re "\u{52}")) (re.++  (re.union  (str.to.re "\u{75}")  (str.to.re "\u{55}")) (re.++  (re.union  (str.to.re "\u{61}")  (str.to.re "\u{41}")) (re.++  (re.union  (str.to.re "\u{72}")  (str.to.re "\u{52}"))  (re.union  (str.to.re "\u{79}")  (str.to.re "\u{59}")))))) )))) (re.union  (re.++  (re.union  (str.to.re "\u{6d}")  (str.to.re "\u{4d}")) (re.++  (re.union  (str.to.re "\u{61}")  (str.to.re "\u{41}")) (re.++  (re.union  (str.to.re "\u{72}")  (str.to.re "\u{52}")) (re.opt  (re.++  (re.union  (str.to.re "\u{63}")  (str.to.re "\u{43}"))  (re.union  (str.to.re "\u{68}")  (str.to.re "\u{48}"))) )))) (re.union  (re.++  (re.union  (str.to.re "\u{61}")  (str.to.re "\u{41}")) (re.++  (re.union  (str.to.re "\u{70}")  (str.to.re "\u{50}")) (re.++  (re.union  (str.to.re "\u{72}")  (str.to.re "\u{52}")) (re.opt  (re.++  (re.union  (str.to.re "\u{69}")  (str.to.re "\u{49}"))  (re.union  (str.to.re "\u{6c}")  (str.to.re "\u{4c}"))) )))) (re.union  (re.++  (re.union  (str.to.re "\u{6d}")  (str.to.re "\u{4d}")) (re.++  (re.union  (str.to.re "\u{61}")  (str.to.re "\u{41}"))  (re.union  (str.to.re "\u{79}")  (str.to.re "\u{59}")))) (re.union  (re.++  (re.union  (str.to.re "\u{6a}")  (str.to.re "\u{4a}")) (re.++  (re.union  (str.to.re "\u{75}")  (str.to.re "\u{55}")) (re.++  (re.union  (str.to.re "\u{6c}")  (str.to.re "\u{4c}")) (re.opt  (re.union  (str.to.re "\u{79}")  (str.to.re "\u{59}")) )))) (re.union  (re.++  (re.union  (str.to.re "\u{61}")  (str.to.re "\u{41}")) (re.++  (re.union  (str.to.re "\u{75}")  (str.to.re "\u{55}")) (re.++  (re.union  (str.to.re "\u{67}")  (str.to.re "\u{47}")) (re.opt  (re.++  (re.union  (str.to.re "\u{75}")  (str.to.re "\u{55}")) (re.++  (re.union  (str.to.re "\u{73}")  (str.to.re "\u{53}"))  (re.union  (str.to.re "\u{74}")  (str.to.re "\u{54}")))) )))) (re.union  (re.++  (re.union  (str.to.re "\u{73}")  (str.to.re "\u{53}")) (re.++  (re.union  (str.to.re "\u{65}")  (str.to.re "\u{45}")) (re.++  (re.union  (str.to.re "\u{70}")  (str.to.re "\u{50}")) (re.opt  (re.++  (re.union  (str.to.re "\u{74}")  (str.to.re "\u{54}")) (re.++  (re.union  (str.to.re "\u{65}")  (str.to.re "\u{45}")) (re.++  (re.union  (str.to.re "\u{6d}")  (str.to.re "\u{4d}")) (re.++  (re.union  (str.to.re "\u{62}")  (str.to.re "\u{42}")) (re.++  (re.union  (str.to.re "\u{65}")  (str.to.re "\u{45}"))  (re.union  (str.to.re "\u{72}")  (str.to.re "\u{52}"))))))) )))) (re.union  (re.++  (re.union  (str.to.re "\u{6f}")  (str.to.re "\u{4f}")) (re.++  (re.union  (str.to.re "\u{63}")  (str.to.re "\u{43}")) (re.++  (re.union  (str.to.re "\u{74}")  (str.to.re "\u{54}")) (re.opt  (re.++  (re.union  (str.to.re "\u{6f}")  (str.to.re "\u{4f}")) (re.++  (re.union  (str.to.re "\u{62}")  (str.to.re "\u{42}")) (re.++  (re.union  (str.to.re "\u{65}")  (str.to.re "\u{45}"))  (re.union  (str.to.re "\u{72}")  (str.to.re "\u{52}"))))) )))) (re.union  (re.++  (re.union  (str.to.re "\u{6e}")  (str.to.re "\u{4e}")) (re.++  (re.union  (str.to.re "\u{6f}")  (str.to.re "\u{4f}")) (re.++  (re.union  (str.to.re "\u{76}")  (str.to.re "\u{56}")) (re.opt  (re.++  (re.union  (str.to.re "\u{65}")  (str.to.re "\u{45}")) (re.++  (re.union  (str.to.re "\u{6d}")  (str.to.re "\u{4d}")) (re.++  (re.union  (str.to.re "\u{62}")  (str.to.re "\u{42}")) (re.++  (re.union  (str.to.re "\u{65}")  (str.to.re "\u{45}"))  (re.union  (str.to.re "\u{72}")  (str.to.re "\u{52}")))))) )))) (re.union  (re.++  (re.union  (str.to.re "\u{64}")  (str.to.re "\u{44}")) (re.++  (re.union  (str.to.re "\u{65}")  (str.to.re "\u{45}")) (re.++  (re.union  (str.to.re "\u{63}")  (str.to.re "\u{43}")) (re.opt  (re.++  (re.union  (str.to.re "\u{65}")  (str.to.re "\u{45}")) (re.++  (re.union  (str.to.re "\u{6d}")  (str.to.re "\u{4d}")) (re.++  (re.union  (str.to.re "\u{62}")  (str.to.re "\u{42}")) (re.++  (re.union  (str.to.re "\u{65}")  (str.to.re "\u{45}"))  (re.union  (str.to.re "\u{72}")  (str.to.re "\u{52}")))))) ))))  (re.++  (re.union  (str.to.re "\u{6a}")  (str.to.re "\u{4a}")) (re.++  (re.union  (str.to.re "\u{75}")  (str.to.re "\u{55}")) (re.++  (re.union  (str.to.re "\u{6e}")  (str.to.re "\u{4e}")) (re.opt  (re.union  (str.to.re "\u{65}")  (str.to.re "\u{45}")) )))))))))))))) )) (re.+  (re.union  (re.++  (re.union  (str.to.re "\u{66}")  (str.to.re "\u{46}")) (re.++  (re.union  (str.to.re "\u{65}")  (str.to.re "\u{45}")) (re.++  (re.union  (str.to.re "\u{62}")  (str.to.re "\u{42}")) (re.opt  (re.++  (re.union  (str.to.re "\u{72}")  (str.to.re "\u{52}")) (re.++  (re.union  (str.to.re "\u{75}")  (str.to.re "\u{55}")) (re.++  (re.union  (str.to.re "\u{61}")  (str.to.re "\u{41}")) (re.++  (re.union  (str.to.re "\u{72}")  (str.to.re "\u{52}"))  (re.union  (str.to.re "\u{79}")  (str.to.re "\u{59}")))))) )))) (re.union  (re.++  (re.union  (str.to.re "\u{6d}")  (str.to.re "\u{4d}")) (re.++  (re.union  (str.to.re "\u{61}")  (str.to.re "\u{41}")) (re.++  (re.union  (str.to.re "\u{72}")  (str.to.re "\u{52}")) (re.opt  (re.++  (re.union  (str.to.re "\u{63}")  (str.to.re "\u{43}"))  (re.union  (str.to.re "\u{68}")  (str.to.re "\u{48}"))) )))) (re.union  (re.++  (re.union  (str.to.re "\u{61}")  (str.to.re "\u{41}")) (re.++  (re.union  (str.to.re "\u{70}")  (str.to.re "\u{50}")) (re.++  (re.union  (str.to.re "\u{72}")  (str.to.re "\u{52}")) (re.opt  (re.++  (re.union  (str.to.re "\u{69}")  (str.to.re "\u{49}"))  (re.union  (str.to.re "\u{6c}")  (str.to.re "\u{4c}"))) )))) (re.union  (re.++  (re.union  (str.to.re "\u{6d}")  (str.to.re "\u{4d}")) (re.++  (re.union  (str.to.re "\u{61}")  (str.to.re "\u{41}"))  (re.union  (str.to.re "\u{79}")  (str.to.re "\u{59}")))) (re.union  (re.++  (re.union  (str.to.re "\u{6a}")  (str.to.re "\u{4a}")) (re.++  (re.union  (str.to.re "\u{75}")  (str.to.re "\u{55}")) (re.++  (re.union  (str.to.re "\u{6c}")  (str.to.re "\u{4c}")) (re.opt  (re.union  (str.to.re "\u{79}")  (str.to.re "\u{59}")) )))) (re.union  (re.++  (re.union  (str.to.re "\u{61}")  (str.to.re "\u{41}")) (re.++  (re.union  (str.to.re "\u{75}")  (str.to.re "\u{55}")) (re.++  (re.union  (str.to.re "\u{67}")  (str.to.re "\u{47}")) (re.opt  (re.++  (re.union  (str.to.re "\u{75}")  (str.to.re "\u{55}")) (re.++  (re.union  (str.to.re "\u{73}")  (str.to.re "\u{53}"))  (re.union  (str.to.re "\u{74}")  (str.to.re "\u{54}")))) )))) (re.union  (re.++  (re.union  (str.to.re "\u{73}")  (str.to.re "\u{53}")) (re.++  (re.union  (str.to.re "\u{65}")  (str.to.re "\u{45}")) (re.++  (re.union  (str.to.re "\u{70}")  (str.to.re "\u{50}")) (re.opt  (re.++  (re.union  (str.to.re "\u{74}")  (str.to.re "\u{54}")) (re.++  (re.union  (str.to.re "\u{65}")  (str.to.re "\u{45}")) (re.++  (re.union  (str.to.re "\u{6d}")  (str.to.re "\u{4d}")) (re.++  (re.union  (str.to.re "\u{62}")  (str.to.re "\u{42}")) (re.++  (re.union  (str.to.re "\u{65}")  (str.to.re "\u{45}"))  (re.union  (str.to.re "\u{72}")  (str.to.re "\u{52}"))))))) )))) (re.union  (re.++  (re.union  (str.to.re "\u{6f}")  (str.to.re "\u{4f}")) (re.++  (re.union  (str.to.re "\u{63}")  (str.to.re "\u{43}")) (re.++  (re.union  (str.to.re "\u{74}")  (str.to.re "\u{54}")) (re.opt  (re.++  (re.union  (str.to.re "\u{6f}")  (str.to.re "\u{4f}")) (re.++  (re.union  (str.to.re "\u{62}")  (str.to.re "\u{42}")) (re.++  (re.union  (str.to.re "\u{65}")  (str.to.re "\u{45}"))  (re.union  (str.to.re "\u{72}")  (str.to.re "\u{52}"))))) )))) (re.union  (re.++  (re.union  (str.to.re "\u{6e}")  (str.to.re "\u{4e}")) (re.++  (re.union  (str.to.re "\u{6f}")  (str.to.re "\u{4f}")) (re.++  (re.union  (str.to.re "\u{76}")  (str.to.re "\u{56}")) (re.opt  (re.++  (re.union  (str.to.re "\u{65}")  (str.to.re "\u{45}")) (re.++  (re.union  (str.to.re "\u{6d}")  (str.to.re "\u{4d}")) (re.++  (re.union  (str.to.re "\u{62}")  (str.to.re "\u{42}")) (re.++  (re.union  (str.to.re "\u{65}")  (str.to.re "\u{45}"))  (re.union  (str.to.re "\u{72}")  (str.to.re "\u{52}")))))) )))) (re.union  (re.++  (re.union  (str.to.re "\u{64}")  (str.to.re "\u{44}")) (re.++  (re.union  (str.to.re "\u{65}")  (str.to.re "\u{45}")) (re.++  (re.union  (str.to.re "\u{63}")  (str.to.re "\u{43}")) (re.opt  (re.++  (re.union  (str.to.re "\u{65}")  (str.to.re "\u{45}")) (re.++  (re.union  (str.to.re "\u{6d}")  (str.to.re "\u{4d}")) (re.++  (re.union  (str.to.re "\u{62}")  (str.to.re "\u{42}")) (re.++  (re.union  (str.to.re "\u{65}")  (str.to.re "\u{45}"))  (re.union  (str.to.re "\u{72}")  (str.to.re "\u{52}")))))) ))))  (re.++  (re.union  (str.to.re "\u{6a}")  (str.to.re "\u{4a}")) (re.++  (re.union  (str.to.re "\u{61}")  (str.to.re "\u{41}")) (re.++  (re.union  (str.to.re "\u{6e}")  (str.to.re "\u{4e}")) (re.opt  (re.++  (re.union  (str.to.re "\u{75}")  (str.to.re "\u{55}")) (re.++  (re.union  (str.to.re "\u{61}")  (str.to.re "\u{41}")) (re.++  (re.union  (str.to.re "\u{72}")  (str.to.re "\u{52}"))  (re.union  (str.to.re "\u{79}")  (str.to.re "\u{59}"))))) )))))))))))))) )  (re.++  (str.to.re "\u{6a}") (re.* (re.union (re.range "\u{00}" "\u{09}") (re.range "\u{0b}" "\u{0c}") (re.range "\u{0e}" "\u{84}") (re.range "\u{86}" "\u{ff}")) )) )))
(check-sat)
(get-model)