TCS_Benchmarks/redos_fix/regexlib1_output_distinct_3305_3304_3_0.txt
([fF][eE][bB]([rR][uU][aA][rR][yY])?|[mM][aA][rR]([cC][hH])?|[aA][pP][rR]([iI][lL])?|[mM][aA][yY]|[jJ][uU][lL]([yY])?|[aA][uU][gG]([uU][sS][tT])?|[sS][eE][pP]([tT][eE][mM][bB][eE][rR])?|[oO][cC][tT]([oO][bB][eE][rR])?|[nN][oO][vV]([eE][mM][bB][eE][rR])?|[dD][eE][cC]([eE][mM][bB][eE][rR])?|[jJ][aA][nN]([uU][aA][rR][yY])?)+([fF][eE][bB]([rR][uU][aA][rR][yY])?|[mM][aA][rR]([cC][hH])?|[aA][pP][rR]([iI][lL])?|[mM][aA][yY]|[jJ][uU][lL]([yY])?|[aA][uU][gG]([uU][sS][tT])?|[sS][eE][pP]([tT][eE][mM][bB][eE][rR])?|[oO][cC][tT]([oO][bB][eE][rR])?|[nN][oO][vV]([eE][mM][bB][eE][rR])?|[dD][eE][cC]([eE][mM][bB][eE][rR])?|[jJ][uU][nN]([eE])?)+
([fF][eE][bB]([rR][uU][aA][rR][yY])?|[mM][aA][rR]([cC][hH])?|[aA][pP][rR]([iI][lL])?|[mM][aA][yY]|[jJ][uU][lL]([yY])?|[aA][uU][gG]([uU][sS][tT])?|[sS][eE][pP]([tT][eE][mM][bB][eE][rR])?|[oO][cC][tT]([oO][bB][eE][rR])?|[nN][oO][vV]([eE][mM][bB][eE][rR])?|[dD][eE][cC]([eE][mM][bB][eE][rR])?|[jJ][aA][nN]([uU][aA][rR][yY])?)+
j.*